p cnf 41 41
-1 35 0 
-2 35 0 
-3 35 0 
-4 36 -39 0 
-5 10 37 -39 0 
-6 19 25 38 -39 0 
-7 39 0 
-8 35 0 
-9 40 -39 0 
-6 19 25 37 -39 0 
-10 5 41 -39 0 
-11 41 -39 0 
-12 39 0 
-13 39 0 
-14 35 0 
-15 35 0 
-10 5 -16 22 41 -39 0 
-17 41 -39 0 
-18 36 -39 0 
-17 36 -39 0 
-4 39 0 
-19 6 25 36 -39 0 
-10 5 36 -39 0 
-20 39 0 
-21 39 0 
-16 22 -6 19 25 38 -39 0 
-22 16 35 0 
-23 -17 41 -39 0 
-24 41 -39 0 
-25 6 19 36 -39 0 
-26 39 0 
-27 35 0 
-28 35 0 
-29 32 35 0 
-30 31 35 0 
-31 30 35 0 
-32 29 35 0 
-33 35 0 
-16 22 39 0 
-11 36 -39 0 
-34 35 0 
